Minimize
 obj: 0 X_0_1
Subject To
 out_0:
  + 1 X_0_1 + 1 X_0_2 + 1 X_0_3 + 1 X_0_4 + 1 X_0_5 + 1 X_0_6 + 1 X_0_7 + 1 X_0_8
  + 1 X_0_9
  = 1
 in_0:
  + 1 X_1_0 + 1 X_2_0 + 1 X_3_0 + 1 X_4_0 + 1 X_5_0 + 1 X_6_0 + 1 X_7_0 + 1 X_8_0
  + 1 X_9_0
  = 1
 out_1:
  + 1 X_1_0 + 1 X_1_2 + 1 X_1_3 + 1 X_1_4 + 1 X_1_5 + 1 X_1_6 + 1 X_1_7 + 1 X_1_8
  + 1 X_1_9
  = 1
 in_1:
  + 1 X_0_1 + 1 X_2_1 + 1 X_3_1 + 1 X_4_1 + 1 X_5_1 + 1 X_6_1 + 1 X_7_1 + 1 X_8_1
  + 1 X_9_1
  = 1
 out_2:
  + 1 X_2_0 + 1 X_2_1 + 1 X_2_3 + 1 X_2_4 + 1 X_2_5 + 1 X_2_6 + 1 X_2_7 + 1 X_2_8
  + 1 X_2_9
  = 1
 in_2:
  + 1 X_0_2 + 1 X_1_2 + 1 X_3_2 + 1 X_4_2 + 1 X_5_2 + 1 X_6_2 + 1 X_7_2 + 1 X_8_2
  + 1 X_9_2
  = 1
 out_3:
  + 1 X_3_0 + 1 X_3_1 + 1 X_3_2 + 1 X_3_4 + 1 X_3_5 + 1 X_3_6 + 1 X_3_7 + 1 X_3_8
  + 1 X_3_9
  = 1
 in_3:
  + 1 X_0_3 + 1 X_1_3 + 1 X_2_3 + 1 X_4_3 + 1 X_5_3 + 1 X_6_3 + 1 X_7_3 + 1 X_8_3
  + 1 X_9_3
  = 1
 out_4:
  + 1 X_4_0 + 1 X_4_1 + 1 X_4_2 + 1 X_4_3 + 1 X_4_5 + 1 X_4_6 + 1 X_4_7 + 1 X_4_8
  + 1 X_4_9
  = 1
 in_4:
  + 1 X_0_4 + 1 X_1_4 + 1 X_2_4 + 1 X_3_4 + 1 X_5_4 + 1 X_6_4 + 1 X_7_4 + 1 X_8_4
  + 1 X_9_4
  = 1
 out_5:
  + 1 X_5_0 + 1 X_5_1 + 1 X_5_2 + 1 X_5_3 + 1 X_5_4 + 1 X_5_6 + 1 X_5_7 + 1 X_5_8
  + 1 X_5_9
  = 1
 in_5:
  + 1 X_0_5 + 1 X_1_5 + 1 X_2_5 + 1 X_3_5 + 1 X_4_5 + 1 X_6_5 + 1 X_7_5 + 1 X_8_5
  + 1 X_9_5
  = 1
 out_6:
  + 1 X_6_0 + 1 X_6_1 + 1 X_6_2 + 1 X_6_3 + 1 X_6_4 + 1 X_6_5 + 1 X_6_7 + 1 X_6_8
  + 1 X_6_9
  = 1
 in_6:
  + 1 X_0_6 + 1 X_1_6 + 1 X_2_6 + 1 X_3_6 + 1 X_4_6 + 1 X_5_6 + 1 X_7_6 + 1 X_8_6
  + 1 X_9_6
  = 1
 out_7:
  + 1 X_7_0 + 1 X_7_1 + 1 X_7_2 + 1 X_7_3 + 1 X_7_4 + 1 X_7_5 + 1 X_7_6 + 1 X_7_8
  + 1 X_7_9
  = 1
 in_7:
  + 1 X_0_7 + 1 X_1_7 + 1 X_2_7 + 1 X_3_7 + 1 X_4_7 + 1 X_5_7 + 1 X_6_7 + 1 X_8_7
  + 1 X_9_7
  = 1
 out_8:
  + 1 X_8_0 + 1 X_8_1 + 1 X_8_2 + 1 X_8_3 + 1 X_8_4 + 1 X_8_5 + 1 X_8_6 + 1 X_8_7
  + 1 X_8_9
  = 1
 in_8:
  + 1 X_0_8 + 1 X_1_8 + 1 X_2_8 + 1 X_3_8 + 1 X_4_8 + 1 X_5_8 + 1 X_6_8 + 1 X_7_8
  + 1 X_9_8
  = 1
 out_9:
  + 1 X_9_0 + 1 X_9_1 + 1 X_9_2 + 1 X_9_3 + 1 X_9_4 + 1 X_9_5 + 1 X_9_6 + 1 X_9_7
  + 1 X_9_8
  = 1
 in_9:
  + 1 X_0_9 + 1 X_1_9 + 1 X_2_9 + 1 X_3_9 + 1 X_4_9 + 1 X_5_9 + 1 X_6_9 + 1 X_7_9
  + 1 X_8_9
  = 1
 mtz_1_2:
  + 1 U1 - 1 U2 + 9 X_1_2
  <= 8
 mtz_1_3:
  + 1 U1 - 1 U3 + 9 X_1_3
  <= 8
 mtz_1_4:
  + 1 U1 - 1 U4 + 9 X_1_4
  <= 8
 mtz_1_5:
  + 1 U1 - 1 U5 + 9 X_1_5
  <= 8
 mtz_1_6:
  + 1 U1 - 1 U6 + 9 X_1_6
  <= 8
 mtz_1_7:
  + 1 U1 - 1 U7 + 9 X_1_7
  <= 8
 mtz_1_8:
  + 1 U1 - 1 U8 + 9 X_1_8
  <= 8
 mtz_1_9:
  + 1 U1 - 1 U9 + 9 X_1_9
  <= 8
 mtz_2_1:
  + 1 U2 - 1 U1 + 9 X_2_1
  <= 8
 mtz_2_3:
  + 1 U2 - 1 U3 + 9 X_2_3
  <= 8
 mtz_2_4:
  + 1 U2 - 1 U4 + 9 X_2_4
  <= 8
 mtz_2_5:
  + 1 U2 - 1 U5 + 9 X_2_5
  <= 8
 mtz_2_6:
  + 1 U2 - 1 U6 + 9 X_2_6
  <= 8
 mtz_2_7:
  + 1 U2 - 1 U7 + 9 X_2_7
  <= 8
 mtz_2_8:
  + 1 U2 - 1 U8 + 9 X_2_8
  <= 8
 mtz_2_9:
  + 1 U2 - 1 U9 + 9 X_2_9
  <= 8
 mtz_3_1:
  + 1 U3 - 1 U1 + 9 X_3_1
  <= 8
 mtz_3_2:
  + 1 U3 - 1 U2 + 9 X_3_2
  <= 8
 mtz_3_4:
  + 1 U3 - 1 U4 + 9 X_3_4
  <= 8
 mtz_3_5:
  + 1 U3 - 1 U5 + 9 X_3_5
  <= 8
 mtz_3_6:
  + 1 U3 - 1 U6 + 9 X_3_6
  <= 8
 mtz_3_7:
  + 1 U3 - 1 U7 + 9 X_3_7
  <= 8
 mtz_3_8:
  + 1 U3 - 1 U8 + 9 X_3_8
  <= 8
 mtz_3_9:
  + 1 U3 - 1 U9 + 9 X_3_9
  <= 8
 mtz_4_1:
  + 1 U4 - 1 U1 + 9 X_4_1
  <= 8
 mtz_4_2:
  + 1 U4 - 1 U2 + 9 X_4_2
  <= 8
 mtz_4_3:
  + 1 U4 - 1 U3 + 9 X_4_3
  <= 8
 mtz_4_5:
  + 1 U4 - 1 U5 + 9 X_4_5
  <= 8
 mtz_4_6:
  + 1 U4 - 1 U6 + 9 X_4_6
  <= 8
 mtz_4_7:
  + 1 U4 - 1 U7 + 9 X_4_7
  <= 8
 mtz_4_8:
  + 1 U4 - 1 U8 + 9 X_4_8
  <= 8
 mtz_4_9:
  + 1 U4 - 1 U9 + 9 X_4_9
  <= 8
 mtz_5_1:
  + 1 U5 - 1 U1 + 9 X_5_1
  <= 8
 mtz_5_2:
  + 1 U5 - 1 U2 + 9 X_5_2
  <= 8
 mtz_5_3:
  + 1 U5 - 1 U3 + 9 X_5_3
  <= 8
 mtz_5_4:
  + 1 U5 - 1 U4 + 9 X_5_4
  <= 8
 mtz_5_6:
  + 1 U5 - 1 U6 + 9 X_5_6
  <= 8
 mtz_5_7:
  + 1 U5 - 1 U7 + 9 X_5_7
  <= 8
 mtz_5_8:
  + 1 U5 - 1 U8 + 9 X_5_8
  <= 8
 mtz_5_9:
  + 1 U5 - 1 U9 + 9 X_5_9
  <= 8
 mtz_6_1:
  + 1 U6 - 1 U1 + 9 X_6_1
  <= 8
 mtz_6_2:
  + 1 U6 - 1 U2 + 9 X_6_2
  <= 8
 mtz_6_3:
  + 1 U6 - 1 U3 + 9 X_6_3
  <= 8
 mtz_6_4:
  + 1 U6 - 1 U4 + 9 X_6_4
  <= 8
 mtz_6_5:
  + 1 U6 - 1 U5 + 9 X_6_5
  <= 8
 mtz_6_7:
  + 1 U6 - 1 U7 + 9 X_6_7
  <= 8
 mtz_6_8:
  + 1 U6 - 1 U8 + 9 X_6_8
  <= 8
 mtz_6_9:
  + 1 U6 - 1 U9 + 9 X_6_9
  <= 8
 mtz_7_1:
  + 1 U7 - 1 U1 + 9 X_7_1
  <= 8
 mtz_7_2:
  + 1 U7 - 1 U2 + 9 X_7_2
  <= 8
 mtz_7_3:
  + 1 U7 - 1 U3 + 9 X_7_3
  <= 8
 mtz_7_4:
  + 1 U7 - 1 U4 + 9 X_7_4
  <= 8
 mtz_7_5:
  + 1 U7 - 1 U5 + 9 X_7_5
  <= 8
 mtz_7_6:
  + 1 U7 - 1 U6 + 9 X_7_6
  <= 8
 mtz_7_8:
  + 1 U7 - 1 U8 + 9 X_7_8
  <= 8
 mtz_7_9:
  + 1 U7 - 1 U9 + 9 X_7_9
  <= 8
 mtz_8_1:
  + 1 U8 - 1 U1 + 9 X_8_1
  <= 8
 mtz_8_2:
  + 1 U8 - 1 U2 + 9 X_8_2
  <= 8
 mtz_8_3:
  + 1 U8 - 1 U3 + 9 X_8_3
  <= 8
 mtz_8_4:
  + 1 U8 - 1 U4 + 9 X_8_4
  <= 8
 mtz_8_5:
  + 1 U8 - 1 U5 + 9 X_8_5
  <= 8
 mtz_8_6:
  + 1 U8 - 1 U6 + 9 X_8_6
  <= 8
 mtz_8_7:
  + 1 U8 - 1 U7 + 9 X_8_7
  <= 8
 mtz_8_9:
  + 1 U8 - 1 U9 + 9 X_8_9
  <= 8
 mtz_9_1:
  + 1 U9 - 1 U1 + 9 X_9_1
  <= 8
 mtz_9_2:
  + 1 U9 - 1 U2 + 9 X_9_2
  <= 8
 mtz_9_3:
  + 1 U9 - 1 U3 + 9 X_9_3
  <= 8
 mtz_9_4:
  + 1 U9 - 1 U4 + 9 X_9_4
  <= 8
 mtz_9_5:
  + 1 U9 - 1 U5 + 9 X_9_5
  <= 8
 mtz_9_6:
  + 1 U9 - 1 U6 + 9 X_9_6
  <= 8
 mtz_9_7:
  + 1 U9 - 1 U7 + 9 X_9_7
  <= 8
 mtz_9_8:
  + 1 U9 - 1 U8 + 9 X_9_8
  <= 8
 obj1:
  + 149 X_0_1 + 261 X_0_2 + 165 X_0_3 + 450 X_0_4 + 329 X_0_5 + 426 X_0_6 + 264 X_0_7 + 575 X_0_8
  + 173 X_0_9 + 149 X_1_0 + 357 X_1_2 + 215 X_1_3 + 589 X_1_4 + 318 X_1_5 + 280 X_1_6 + 260 X_1_7
  + 724 X_1_8 + 167 X_1_9 + 261 X_2_0 + 357 X_2_1 + 417 X_2_3 + 510 X_2_4 + 238 X_2_5 + 622 X_2_6
  + 207 X_2_7 + 534 X_2_8 + 434 X_2_9 + 165 X_3_0 + 215 X_3_1 + 417 X_3_2 + 418 X_3_4 + 487 X_3_5
  + 420 X_3_6 + 422 X_3_7 + 592 X_3_8 + 71 X_3_9 + 450 X_4_0 + 589 X_4_1 + 510 X_4_2 + 418 X_4_3
  + 717 X_4_5 + 836 X_4_6 + 662 X_4_7 + 213 X_4_8 + 489 X_4_9 + 329 X_5_0 + 318 X_5_1 + 238 X_5_2
  + 487 X_5_3 + 717 X_5_4 + 502 X_5_6 + 65 X_5_7 + 769 X_5_8 + 467 X_5_9 + 426 X_6_0 + 280 X_6_1
  + 622 X_6_2 + 420 X_6_3 + 836 X_6_4 + 502 X_6_5 + 467 X_6_7 + 993 X_6_8 + 349 X_6_9 + 264 X_7_0
  + 260 X_7_1 + 207 X_7_2 + 422 X_7_3 + 662 X_7_4 + 65 X_7_5 + 467 X_7_6 + 725 X_7_8 + 404 X_7_9
  + 575 X_8_0 + 724 X_8_1 + 534 X_8_2 + 592 X_8_3 + 213 X_8_4 + 769 X_8_5 + 993 X_8_6 + 725 X_8_7
  + 660 X_8_9 + 173 X_9_0 + 167 X_9_1 + 434 X_9_2 + 71 X_9_3 + 489 X_9_4 + 467 X_9_5 + 349 X_9_6
  + 404 X_9_7 + 660 X_9_8
  <= 1
 obj2:
  + 1138 X_0_1 + 420 X_0_2 + 48 X_0_3 + 716 X_0_4 + 576 X_0_5 + 910 X_0_6 + 524 X_0_7 + 638 X_0_8
  + 584 X_0_9 + 1138 X_1_0 + 923 X_1_2 + 1090 X_1_3 + 585 X_1_4 + 856 X_1_5 + 238 X_1_6 + 891 X_1_7
  + 501 X_1_8 + 561 X_1_9 + 420 X_2_0 + 923 X_2_1 + 388 X_2_3 + 734 X_2_4 + 157 X_2_5 + 742 X_2_6
  + 104 X_2_7 + 507 X_2_8 + 494 X_2_9 + 48 X_3_0 + 1090 X_3_1 + 388 X_3_2 + 674 X_3_4 + 543 X_3_5
  + 862 X_3_6 + 492 X_3_7 + 590 X_3_8 + 537 X_3_9 + 716 X_4_0 + 585 X_4_1 + 734 X_4_2 + 674 X_4_3
  + 777 X_4_5 + 364 X_4_6 + 773 X_4_7 + 280 X_4_8 + 255 X_4_9 + 576 X_5_0 + 856 X_5_1 + 157 X_5_2
  + 543 X_5_3 + 777 X_5_4 + 707 X_5_6 + 56 X_5_7 + 516 X_5_8 + 523 X_5_9 + 910 X_6_0 + 238 X_6_1
  + 742 X_6_2 + 862 X_6_3 + 364 X_6_4 + 707 X_6_5 + 731 X_6_7 + 272 X_6_8 + 327 X_6_9 + 524 X_7_0
  + 891 X_7_1 + 104 X_7_2 + 492 X_7_3 + 773 X_7_4 + 56 X_7_5 + 731 X_7_6 + 523 X_7_8 + 523 X_7_9
  + 638 X_8_0 + 501 X_8_1 + 507 X_8_2 + 590 X_8_3 + 280 X_8_4 + 516 X_8_5 + 272 X_8_6 + 523 X_8_7
  + 66 X_8_9 + 584 X_9_0 + 561 X_9_1 + 494 X_9_2 + 537 X_9_3 + 255 X_9_4 + 523 X_9_5 + 327 X_9_6
  + 523 X_9_7 + 66 X_9_8
  <= 2
 obj3:
  + 369 X_0_1 + 650 X_0_2 + 212 X_0_3 + 442 X_0_4 + 118 X_0_5 + 337 X_0_6 + 381 X_0_7 + 86 X_0_8
  + 399 X_0_9 + 369 X_1_0 + 310 X_1_2 + 407 X_1_3 + 765 X_1_4 + 367 X_1_5 + 31 X_1_6 + 411 X_1_7
  + 415 X_1_8 + 379 X_1_9 + 650 X_2_0 + 310 X_2_1 + 717 X_2_3 + 976 X_2_4 + 608 X_2_5 + 335 X_2_6
  + 506 X_2_7 + 673 X_2_8 + 454 X_2_9 + 212 X_3_0 + 407 X_3_1 + 717 X_3_2 + 610 X_3_4 + 327 X_3_5
  + 383 X_3_6 + 576 X_3_7 + 294 X_3_8 + 583 X_3_9 + 442 X_4_0 + 765 X_4_1 + 976 X_4_2 + 610 X_4_3
  + 399 X_4_5 + 734 X_4_6 + 501 X_4_7 + 365 X_4_8 + 553 X_4_9 + 118 X_5_0 + 367 X_5_1 + 608 X_5_2
  + 327 X_5_3 + 399 X_5_4 + 336 X_5_6 + 267 X_5_7 + 72 X_5_8 + 291 X_5_9 + 337 X_6_0 + 31 X_6_1
  + 335 X_6_2 + 383 X_6_3 + 734 X_6_4 + 336 X_6_5 + 392 X_6_7 + 384 X_6_8 + 363 X_6_9 + 381 X_7_0
  + 411 X_7_1 + 506 X_7_2 + 576 X_7_3 + 501 X_7_4 + 267 X_7_5 + 392 X_7_6 + 333 X_7_8 + 53 X_7_9
  + 86 X_8_0 + 415 X_8_1 + 673 X_8_2 + 294 X_8_3 + 365 X_8_4 + 72 X_8_5 + 384 X_8_6 + 333 X_8_7
  + 361 X_8_9 + 399 X_9_0 + 379 X_9_1 + 454 X_9_2 + 583 X_9_3 + 553 X_9_4 + 291 X_9_5 + 363 X_9_6
  + 53 X_9_7 + 361 X_9_8
  <= 3
 obj4:
  + 483 X_0_1 + 440 X_0_2 + 302 X_0_3 + 459 X_0_4 + 660 X_0_5 + 265 X_0_6 + 454 X_0_7 + 405 X_0_8
  + 871 X_0_9 + 483 X_1_0 + 482 X_1_2 + 222 X_1_3 + 66 X_1_4 + 514 X_1_5 + 617 X_1_6 + 866 X_1_7
  + 544 X_1_8 + 652 X_1_9 + 440 X_2_0 + 482 X_2_1 + 498 X_2_3 + 417 X_2_4 + 248 X_2_5 + 703 X_2_6
  + 526 X_2_7 + 96 X_2_8 + 461 X_2_9 + 302 X_3_0 + 222 X_3_1 + 498 X_3_2 + 233 X_3_4 + 624 X_3_5
  + 395 X_3_6 + 738 X_3_7 + 523 X_3_8 + 803 X_3_9 + 459 X_4_0 + 66 X_4_1 + 417 X_4_2 + 233 X_4_3
  + 452 X_4_5 + 620 X_4_6 + 819 X_4_7 + 482 X_4_8 + 599 X_4_9 + 660 X_5_0 + 514 X_5_1 + 248 X_5_2
  + 624 X_5_3 + 452 X_5_4 + 912 X_5_6 + 763 X_5_7 + 336 X_5_8 + 214 X_5_9 + 265 X_6_0 + 617 X_6_1
  + 703 X_6_2 + 395 X_6_3 + 620 X_6_4 + 912 X_6_5 + 623 X_6_7 + 670 X_6_8 + 1118 X_6_9 + 454 X_7_0
  + 866 X_7_1 + 526 X_7_2 + 738 X_7_3 + 819 X_7_4 + 763 X_7_5 + 623 X_7_6 + 431 X_7_8 + 963 X_7_9
  + 405 X_8_0 + 544 X_8_1 + 96 X_8_2 + 523 X_8_3 + 482 X_8_4 + 336 X_8_5 + 670 X_8_6 + 431 X_8_7
  + 545 X_8_9 + 871 X_9_0 + 652 X_9_1 + 461 X_9_2 + 803 X_9_3 + 599 X_9_4 + 214 X_9_5 + 1118 X_9_6
  + 963 X_9_7 + 545 X_9_8
  <= 4
Bounds
 1 <= U1 <= 9
 1 <= U2 <= 9
 1 <= U3 <= 9
 1 <= U4 <= 9
 1 <= U5 <= 9
 1 <= U6 <= 9
 1 <= U7 <= 9
 1 <= U8 <= 9
 1 <= U9 <= 9
Binary
 X_0_1
 X_0_2
 X_0_3
 X_0_4
 X_0_5
 X_0_6
 X_0_7
 X_0_8
 X_0_9
 X_1_0
 X_1_2
 X_1_3
 X_1_4
 X_1_5
 X_1_6
 X_1_7
 X_1_8
 X_1_9
 X_2_0
 X_2_1
 X_2_3
 X_2_4
 X_2_5
 X_2_6
 X_2_7
 X_2_8
 X_2_9
 X_3_0
 X_3_1
 X_3_2
 X_3_4
 X_3_5
 X_3_6
 X_3_7
 X_3_8
 X_3_9
 X_4_0
 X_4_1
 X_4_2
 X_4_3
 X_4_5
 X_4_6
 X_4_7
 X_4_8
 X_4_9
 X_5_0
 X_5_1
 X_5_2
 X_5_3
 X_5_4
 X_5_6
 X_5_7
 X_5_8
 X_5_9
 X_6_0
 X_6_1
 X_6_2
 X_6_3
 X_6_4
 X_6_5
 X_6_7
 X_6_8
 X_6_9
 X_7_0
 X_7_1
 X_7_2
 X_7_3
 X_7_4
 X_7_5
 X_7_6
 X_7_8
 X_7_9
 X_8_0
 X_8_1
 X_8_2
 X_8_3
 X_8_4
 X_8_5
 X_8_6
 X_8_7
 X_8_9
 X_9_0
 X_9_1
 X_9_2
 X_9_3
 X_9_4
 X_9_5
 X_9_6
 X_9_7
 X_9_8
End
